50
0 1 2.5
1 6 3.0
2 8 1.8
3 2 4.2
4 5 2.7
5 9 3.5
6 7 1.9
7 3 2.3
8 4 3.8
9 7 2.1
10 10 1.5
11 8 3.6
12 9 2.9
13 5 3.3
14 6 2.2
15 11 1.7
16 20 2.4
17 13 3.1
18 15 2.6
19 17 3.7
20 18 2.0
21 23 3.4
22 24 1.6
23 25 2.8
24 19 3.9
25 21 2.3
26 22 3.2
27 26 1.8
28 29 2.7
29 30 3.3
30 31 1.9
31 32 2.5
32 33 3.6
33 35 2.2
34 36 3.0
35 38 1.8
36 39 2.9
37 40 3.7
38 42 1.6
39 43 2.8
40 44 3.5
41 45 2.1
42 46 3.8
43 47 1.7
44 48 2.9
45 49 3.4
46 27 2.4
47 28 3.1
48 34 1.9
49 37 2.6